NAME: tsp30_1
COMMENT: 30-tsp problem (Padberg/Rinaldi)
TYPE: TSP
DIMENSION: 30
EDGE_WEIGHT_TYPE : EUC_2D
NODE_COORD_SECTION
1 3 23
2 22 19
3 6 35
4 18 19
5 20 8
6 5 24
7 27 39
8 14 25
9 29 10
10 35 40
11 3 27
12 5 26
13 17 12
14 14 3
15 25 13
16 14 15
17 10 29
18 21 38
19 3 37
20 7 8
21 1 11
22 17 12
23 31 33
24 34 19
25 38 1
26 31 30
27 12 36
28 10 29
29 19 26
30 18 35
